c File: instances/18_0.35_1.col
c
c Description: Random graph of size 18 vertices and P(0.35) of edges between any two vertices.
p col 18 153
e 1 2
e 1 4
e 1 8
e 1 11
e 1 12
e 1 16
e 1 17
e 2 4
e 2 6
e 2 7
e 2 9
e 2 10
e 2 11
e 2 14
e 2 16
e 2 18
e 3 4
e 3 6
e 3 8
e 3 9
e 3 13
e 3 14
e 3 16
e 3 17
e 3 18
e 4 5
e 4 8
e 4 11
e 4 13
e 4 17
e 5 7
e 5 18
e 6 10
e 6 11
e 6 13
e 6 16
e 6 17
e 7 8
e 7 9
e 7 13
e 7 16
e 7 17
e 7 18
e 8 11
e 8 12
e 8 14
e 8 16
e 9 11
e 9 12
e 9 18
e 10 11
e 10 12
e 10 14
e 10 15
e 10 17
e 10 18
e 11 13
e 11 16
e 11 17
e 11 18
e 12 15
e 12 16
e 12 18
e 13 14
e 13 15
e 13 16
e 15 16
e 15 17